100
1000
200
198
198
197
196
196
195
195
195
195
194
194
193
193
192
192
192
191
190
189
188
188
187
187
187
187
187
186
185
185
185
185
184
183
182
182
182
182
181
181
181
180
179
179
178
178
178
178
177
176
176
175
175
175
174
173
173
173
172
171
171
171
169
169
169
169
168
167
167
167
166
166
164
164
163
163
162
162
161
159
159
158
158
158
157
156
155
155
154
153
153
153
153
152
152
152
151
150
150
150
